
List of user-set options:

                                    Name   Value                used
                         derivative_test = first-order           yes
                        file_print_level = 5                     yes
                   hessian_approximation = limited-memory        yes
                                  hsllib = /home/grant/packages/ThirdParty-HSL/.libs/libcoinhsl.so  yes
                           linear_solver = ma97                  yes
                                max_iter = 100                   yes
                             output_file = IPOPT.out             yes
                             print_level = 0                     yes
                      print_user_options = yes                   yes
                                      sb = yes                   yes
This is Ipopt version 3.14.7, running with linear solver ma97.

Starting derivative checker for first derivatives.

* grad_f[          3] = -2.1382184911544755e-04    ~ -2.1370038336870369e-04  [ 5.684e-04]

Derivative checker detected 1 error(s).

Number of nonzeros in equality constraint Jacobian...:        0
Number of nonzeros in inequality constraint Jacobian.:        6
Number of nonzeros in Lagrangian Hessian.............:        0

Total number of variables............................:        6
                     variables with only lower bounds:        0
                variables with lower and upper bounds:        6
                     variables with only upper bounds:        0
Total number of equality constraints.................:        0
Total number of inequality constraints...............:        1
        inequality constraints with only lower bounds:        0
   inequality constraints with lower and upper bounds:        0
        inequality constraints with only upper bounds:        0

iter    objective    inf_pr   inf_du lg(mu)  ||d||  lg(rg) alpha_du alpha_pr  ls
   0  6.8979295e+00 0.00e+00 3.19e+00   0.0 0.00e+00    -  0.00e+00 0.00e+00   0
   1  1.1003749e+00 0.00e+00 1.75e+00  -5.6 1.77e+00    -  5.80e-01 1.00e+00f  1
   2  3.6158919e-01 0.00e+00 2.37e+00  -0.8 1.67e+00    -  9.84e-01 4.33e-01f  1
   3  3.1242343e-01 0.00e+00 3.47e-01  -1.3 1.10e-01    -  9.38e-01 1.00e+00f  1
   4  2.9816106e-01 0.00e+00 1.60e+00  -1.8 1.90e+00    -  6.72e-01 5.00e-01f  2
   5  1.4944959e-01 0.00e+00 3.15e-01  -2.0 3.87e-01    -  1.00e+00 1.00e+00f  1
   6  1.1116809e-01 0.00e+00 1.51e-01  -3.0 2.34e-01    -  1.00e+00 1.00e+00f  1
   7  4.6042619e-02 0.00e+00 1.51e-01  -4.2 3.61e-01    -  1.00e+00 1.00e+00f  1
   8  6.1734922e-03 0.00e+00 1.00e-01  -5.3 3.62e-01    -  1.00e+00 1.00e+00f  1
   9  2.2218074e-03 0.00e+00 4.96e-02  -5.3 1.19e-01    -  1.00e+00 1.00e+00f  1
iter    objective    inf_pr   inf_du lg(mu)  ||d||  lg(rg) alpha_du alpha_pr  ls
  10  0.0000000e+00 0.00e+00 4.76e-07  -6.5 6.62e-02    -  1.00e+00 1.00e+00f  1
  11  0.0000000e+00 0.00e+00 8.75e-11 -11.0 4.05e-11    -  1.00e+00 1.00e+00f  1

Number of Iterations....: 11

                                   (scaled)                 (unscaled)
Objective...............:   0.0000000000000000e+00    0.0000000000000000e+00
Dual infeasibility......:   8.7493616874369916e-11    8.7493616874369916e-11
Constraint violation....:   0.0000000000000000e+00    0.0000000000000000e+00
Variable bound violation:   0.0000000000000000e+00    0.0000000000000000e+00
Complementarity.........:   1.0000005624528073e-11    1.0000005624528073e-11
Overall NLP error.......:   8.7493616874369916e-11    8.7493616874369916e-11


Number of objective function evaluations             = 17
Number of objective gradient evaluations             = 12
Number of equality constraint evaluations            = 0
Number of inequality constraint evaluations          = 17
Number of equality constraint Jacobian evaluations   = 0
Number of inequality constraint Jacobian evaluations = 12
Number of Lagrangian Hessian evaluations             = 0
Total seconds in IPOPT                               = 0.044

EXIT: Optimal Solution Found.
